mixintcount/benchmarks/random_v2l/3_3_354.in
12 5
#	x1	x2	x3;		0 = Real; 1 = Integer
	1	1	1
1	6	-6	0	191
1	-8	-6	2	153
1	-3	-4	6	-330
1	-8	-2	4	196
1	7	-10	-6	224
1	-7	-7	-3	-142
1	1	0	0	354
1	-1	0	0	354
1	0	1	0	354
1	0	-1	0	354
1	0	0	1	354
1	0	0	-1	354
